max: +1.y6  +1.y7  +1.y49  +1.y17  +1.y14  +1.x26  +1.y30  +1.y1  +1.y54  +1.y51  +72.8241169y52  +1.y40  +1.y16  +1.y45  +1.y0  +1.y41  +1.y25  +1.y58  +1.y26  +1.y39  +14.y32  +1.y46  +132.43272232y13  +1.y19  +1.y28  +1.y8  +1.x0  +1.y9  +1.y27  +1.y2  +1.y47  +1.y10  +1.y29  +1.y11  +1.y42  +1.y20  +1.y48  +1.y24  +1.y31  +1.y3  +0.y12  +1.y15  +1.y18  +2.y43  +1.y57  +1.y23  ;
 x0 = 1 ; 
 y6=+d6;
y7=+d7;
y49=+d49+d50;
y17=+d17;
y14=+d14;
x26=+d26;
x26=0;
y30=+d30;
y1=+d3+d4+d5+d6+d7+d8+d9+d10+d11;
y1=+d1;
y54=+d54;
y51=+d51;
y52=+d53+d54+d55+d56+d57+d58;
y52=+d52;
y40=+d40;
y16=+d16;
y45=+d45;
y0=+d2+d12+d13+d14+d15+d16;
y0=+d0;
y41=+d41;
y25=+d25+d33+d53;
y58=+d58;
y26=+d27;
y26=+d26+d44;
y39=+d39;
y32=+d33+d34+d35+d36+d37+d38+d39+d40+d41+d42+d52;
y32=+d32;
y46=+d46;
y13=+d17+d18+d19+d20+d21+d22+d23+d24+d25+d28+d30+d31+d43+d45+d46+d47+d48+d49+d50;
y13=+d13;
y19=+d19+d35+d37+d56;
y28=+d29;
y28=+d28;
y8=+d8;
x0=+d0+d1;
y9=+d9;
y27=+d27;
y2=+d2;
y47=+d47;
y10=+d10;
y29=+d29;
y11=+d11;
y42=+d42;
y20=+d20+d21+d22+d34+d55;
y48=+d48;
y24=+d24+d38;
y31=+d32;
y31=+d31;
y3=+d3+d4+d5;
y12=+d51;
y12=+d12;
y15=+d15;
y18=+d18+d36;
y43=+d44;
y43=+d43;
y57=+d57;
y23=+d23;

